75 12 7 47 27 62 86 18 88 90 99 8 6 84 49 46 26 54 89 93 70 77 
33 52 5 83 61 42 36 44 38 40 67 9 73 51 55 34 35 80 37 72 17 25 
65 39 21 14 30 69 11 87 79 3 71 19 60 74 13 20 1 32 100 
43 56 4 
23 45 64 82 48 63 78 58 96 
98 31 16 95 92 29 57 15 81 76 94 91 53 28 22 41 97 85 10 66 2 24 68 50 59 

